(set-logic ALL)
(declare-fun var0 () String)
(assert (str.in_re var0 (re.++ (re.+ (re.+ (str.to_re "00"))) (re.++ (re.+ (re.+ (str.to_re "111"))) (re.++ (re.+ (re.* (str.to_re "222"))) (re.++ (re.union (re.* (str.to_re "3")) (re.* (str.to_re "4"))) (re.++ (re.union (re.+ (str.to_re "5")) (re.+ (str.to_re "66"))) (re.++ (re.union (re.* (str.to_re "77")) (re.* (str.to_re "88"))) (re.++ (re.union (re.union (str.to_re "9") (str.to_re "aaa")) (re.union (str.to_re "bb") (str.to_re "cc"))) (re.++ (re.+ (re.union (str.to_re "d") (str.to_re "e"))) (re.++ (re.union (re.* (str.to_re "f")) (re.* (str.to_re "g"))) (re.* (re.+ (str.to_re "hh"))))))))))))))
(assert (str.in_re var0 (re.++ (re.union (re.* (str.to_re "0")) (re.* (str.to_re "11"))) (re.++ (re.+ (re.* (str.to_re "22"))) (re.++ (re.* (re.* (str.to_re "333"))) (re.++ (re.+ (re.union (str.to_re "44") (str.to_re "55"))) (re.++ (re.union (re.union (str.to_re "666") (str.to_re "7")) (re.union (str.to_re "88") (str.to_re "99"))) (re.++ (re.+ (re.union (str.to_re "a") (str.to_re "bb"))) (re.++ (re.+ (re.union (str.to_re "c") (str.to_re "ddd"))) (re.++ (re.* (re.+ (str.to_re "ee"))) (re.++ (re.* (re.* (str.to_re "fff"))) (re.* (re.* (str.to_re "gg"))))))))))))))
(assert (str.in_re var0 (re.++ (re.* (re.* (str.to_re "000"))) (re.++ (re.* (re.+ (str.to_re "11"))) (re.++ (re.+ (re.union (str.to_re "222") (str.to_re "3"))) (re.++ (re.+ (re.* (str.to_re "444"))) (re.++ (re.* (re.+ (str.to_re "5"))) (re.++ (re.union (re.union (str.to_re "666") (str.to_re "777")) (re.union (str.to_re "88") (str.to_re "9"))) (re.++ (re.union (re.+ (str.to_re "aaa")) (re.+ (str.to_re "bbb"))) (re.++ (re.* (re.+ (str.to_re "cc"))) (re.++ (re.* (re.union (str.to_re "ddd") (str.to_re "e"))) (re.union (re.+ (str.to_re "f")) (re.+ (str.to_re "g"))))))))))))))
(assert (str.in_re var0 (re.++ (re.union (re.+ (str.to_re "0")) (re.+ (str.to_re "111"))) (re.++ (re.* (re.* (str.to_re "2"))) (re.++ (re.* (re.* (str.to_re "3"))) (re.++ (re.+ (re.* (str.to_re "4"))) (re.++ (re.* (re.+ (str.to_re "55"))) (re.++ (re.+ (re.* (str.to_re "66"))) (re.++ (re.union (re.union (str.to_re "777") (str.to_re "88")) (re.union (str.to_re "99") (str.to_re "a"))) (re.++ (re.union (re.union (str.to_re "b") (str.to_re "ccc")) (re.union (str.to_re "dd") (str.to_re "e"))) (re.++ (re.* (re.* (str.to_re "ff"))) (re.union (re.union (str.to_re "gg") (str.to_re "h")) (re.union (str.to_re "iii") (str.to_re "j"))))))))))))))
(check-sat)